2
1000 4
56
162 1 2
163 1 2
166 1 1
167 1 2
168 1 2
169 1 1
170 1 2
173 1 4
174 1 1
177 1 2
178 1 1
179 1 1
180 1 4
181 1 1
182 1 3
183 1 2
185 1 2
186 1 2
187 1 2
188 1 1
189 1 3
190 1 1
191 1 3
192 1 1
193 1 1
194 1 1
195 1 3
197 1 1
198 1 2
199 1 1
200 1 2
201 1 4
202 1 1
203 1 2
204 1 2
205 1 3
206 1 1
207 1 1
212 1 2
215 1 1
219 1 1
220 1 2
222 1 3
223 1 1
224 1 2
225 1 1
226 1 2
227 1 1
229 1 2
231 1 1
232 1 2
233 1 1
234 1 3
235 1 1
237 1 2
239 1 1
